1735
69 65 54 37 40 83 57 31 27 20 49 93 44 1 89 38 47 90 82 48 51 34 42 2 21 52 8 7 73 58 72 13 59 25 92 39 88 70 43 79 95 96 62 64 74 76 75 71 77 78 5 24 80 87 4 53 85 16 98 46 28 10 66 36 94 18 14 23 91 67 15 63 61 6 60 9 26 17 81 68 12 11 22 29 56 84 50 33 19 30 45 86 55 97 32 99 35 41 3 
